ISMEAR = 0
SIGMA = 0.01
ICHARG = 11 #Non-SCF
LORBIT = 11
